50
1000
607
597
582
581
571
552
550
543
532
499
491
482
477
458
453
449
419
417
412
403
394
392
385
363
343
339
299
299
290
286
283
269
256
250
237
229
192
162
146
115
105
104
103
90
87
73
72
70
55
38
